72 80 64 18 76 38 2 39 30 75 37 79 31 28 78 0 93 42 5 77 17 8 34 26 22 40 74 48 99 44 15 29 89 53 90 19 66 25 10 49 36 27 6 11 7 83 71 45 43 57 50 23 69 24 73 91 55 96 32 60 20 1 68 65 82 4 61 16 46 51 56 13 33 54 84 35 14 97 87 67 3 47 88 58 62 95 59 86 63 9 92 98 41 85 21 81 12 94 52 70 

